Route #1: 1 2 5 29 23 45 30 50 37 51 44 24 20 16 33 17 13 1
Route #2: 1 32 21 7 26 40 6 4 15 8 1
Route #3: 1 48 10 18 25 12 42 53 1
Route #4: 1 52 9 28 36 39 19 1
Route #5: 1 34 22 35 14 1
Route #6: 1 38 3 46 43 49 31 1
Route #7: 1 47 41 11 27 1
cost 1230.832379123528